100 3598
840 532 84 532 665 336 399 1064 588 1197 672 532 266 1064 336 840 1330 1064 665 532 504 1064 665 84 756 1197 1064 168 420 168 420 798 665 588 252 532 420 532 588 665 504 840 252 133 931 504 665 931 84 399 588 931 1197 665 266 672 532 532 756 133 798 1330 756 399 665 252 798 798 931 665 420 756 504 665 504 420 756 665 399 588 504 399 399 532 840 672 588 336 266 252 1064 1064 336 399 504 504 420 756 588 588 
980 472 98 472 590 392 354 944 686 1062 784 472 236 944 392 980 1180 944 590 472 588 944 590 98 882 1062 944 196 490 196 490 708 590 686 294 472 490 472 686 590 588 980 294 118 826 588 590 826 98 354 686 826 1062 590 236 784 472 472 882 118 708 1180 882 354 590 294 708 708 826 590 490 882 588 590 588 490 882 590 354 686 588 354 354 472 980 784 686 392 236 294 944 944 392 354 588 588 490 882 686 686 
